(set-logic QF_LRA)
(declare-fun fluent_started_i0_t0@0 () Bool)
(declare-fun fluent_started_i1_t0@0 () Bool)
(declare-fun fluent_started_i0_t1@0 () Bool)
(declare-fun fluent_started_i1_t1@0 () Bool)
(declare-fun fluent_started_i0_t2@0 () Bool)
(declare-fun fluent_ready_i0_t0@0 () Bool)
(declare-fun fluent_ready_i1_t0@0 () Bool)
(declare-fun fluent_ready_i0_t1@0 () Bool)
(declare-fun fluent_ready_i1_t1@0 () Bool)
(declare-fun fluent_ready_i0_t2@0 () Bool)
(declare-fun fluent_ready_i1_t2@0 () Bool)
(declare-fun fluent_counter_t0@1 () Real)
(declare-fun fluent_started_i1_t2@0 () Bool)
(declare-fun fluent_counter_t1@1 () Real)
(declare-fun fluent_busy_@0 () Bool)
(declare-fun fluent_counter_t2@1 () Real)
(declare-fun fluent_treated_i0_t0@0 () Bool)
(declare-fun fluent_treated_i1_t0@0 () Bool)
(declare-fun fluent_treated_i0_t1@0 () Bool)
(declare-fun fluent_treated_i1_t1@0 () Bool)
(declare-fun fluent_treated_i0_t2@0 () Bool)
(declare-fun fluent_treated_i1_t2@0 () Bool)
(declare-fun fluent_busy_@1 () Bool)
(declare-fun fluent_started_i0_t0@1 () Bool)
(declare-fun fluent_started_i1_t0@1 () Bool)
(declare-fun fluent_started_i0_t1@1 () Bool)
(declare-fun fluent_started_i1_t1@1 () Bool)
(declare-fun fluent_started_i0_t2@1 () Bool)
(declare-fun fluent_started_i1_t2@1 () Bool)
(declare-fun fluent_counter_t0@0 () Real)
(declare-fun fluent_counter_t1@0 () Real)
(declare-fun fluent_treated_i0_t0@1 () Bool)
(declare-fun fluent_treated_i1_t0@1 () Bool)
(declare-fun fluent_counter_t2@0 () Real)
(declare-fun fluent_treated_i0_t1@1 () Bool)
(declare-fun fluent_treated_i1_t1@1 () Bool)
(declare-fun fluent_treated_i0_t2@1 () Bool)
(declare-fun fluent_treated_i1_t2@1 () Bool)
(declare-fun dur_make_treatment@1 () Real)
(declare-fun t@1 () Real)
(declare-fun fluent_ready_i0_t0@1 () Bool)
(declare-fun fluent_ready_i1_t0@1 () Bool)
(declare-fun parameter_make_treatment_t@1 () Real)
(declare-fun fluent_ready_i0_t1@1 () Bool)
(declare-fun fluent_ready_i1_t1@1 () Bool)
(declare-fun fluent_ready_i0_t2@1 () Bool)
(declare-fun parameter_make_treatment_i@1 () Real)
(declare-fun fluent_ready_i1_t2@1 () Bool)
(declare-fun act_make_treatment@1 () Bool)
(declare-fun __z3_2 () Real)
(declare-fun __z3_3 () Real)
(declare-fun parameter_make_treatment_next@1 () Real)
(declare-fun __z3_4 () Real)
(declare-fun __z3_0 () Real)
(declare-fun __z3_1 () Real)
(assert (let ((.def_0 (= __z3_1 __z3_4))) (let ((.def_1 (= parameter_make_treatment_t@1 4.0))) (let ((.def_2 (or .def_1 .def_0))) (let ((.def_3 (= __z3_1 fluent_counter_t2@1))) (let ((.def_4 (not .def_1))) (let ((.def_5 (or .def_4 .def_3))) (let ((.def_6 (= __z3_4 fluent_counter_t0@1))) (let ((.def_7 (= parameter_make_treatment_t@1 3.0))) (let ((.def_8 (or .def_7 .def_6))) (let ((.def_9 (= __z3_4 fluent_counter_t1@1))) (let ((.def_10 (not .def_7))) (let ((.def_11 (or .def_10 .def_9))) (let ((.def_12 (= __z3_0 __z3_3))) (let ((.def_13 (or .def_1 .def_12))) (let ((.def_14 (= __z3_0 fluent_counter_t2@0))) (let ((.def_15 (or .def_4 .def_14))) (let ((.def_16 (= __z3_3 fluent_counter_t0@0))) (let ((.def_17 (or .def_7 .def_16))) (let ((.def_18 (= __z3_3 fluent_counter_t1@0))) (let ((.def_19 (or .def_10 .def_18))) (let ((.def_20 (= __z3_2 0.0))) (let ((.def_21 (= parameter_make_treatment_i@1 1.0))) (let ((.def_22 (or .def_21 .def_20))) (let ((.def_23 (= __z3_2 1.0))) (let ((.def_24 (not .def_21))) (let ((.def_25 (or .def_24 .def_23))) (let ((.def_26 (<= fluent_counter_t2@1 31.0))) (let ((.def_27 (<= 0.0 fluent_counter_t2@1))) (let ((.def_28 (<= fluent_counter_t1@1 31.0))) (let ((.def_29 (<= 0.0 fluent_counter_t1@1))) (let ((.def_30 (<= fluent_counter_t0@1 31.0))) (let ((.def_31 (<= 0.0 fluent_counter_t0@1))) (let ((.def_32 (= parameter_make_treatment_i@1 0.0))) (let ((.def_33 (or .def_32 .def_21))) (let ((.def_34 (= parameter_make_treatment_next@1 4.0))) (let ((.def_35 (= parameter_make_treatment_next@1 3.0))) (let ((.def_36 (= parameter_make_treatment_next@1 2.0))) (let ((.def_37 (or .def_36 .def_35 .def_34))) (let ((.def_38 (= parameter_make_treatment_t@1 2.0))) (let ((.def_39 (or .def_38 .def_7 .def_1))) (let ((.def_40 (and act_make_treatment@1 true .def_1))) (let ((.def_41 (= fluent_counter_t2@0 fluent_counter_t2@1))) (let ((.def_42 (not .def_41))) (let ((.def_43 (=> .def_42 .def_40))) (let ((.def_44 (and act_make_treatment@1 true .def_7))) (let ((.def_45 (= fluent_counter_t1@0 fluent_counter_t1@1))) (let ((.def_46 (not .def_45))) (let ((.def_47 (=> .def_46 .def_44))) (let ((.def_48 (and act_make_treatment@1 true .def_38))) (let ((.def_49 (= fluent_counter_t0@0 fluent_counter_t0@1))) (let ((.def_50 (not .def_49))) (let ((.def_51 (=> .def_50 .def_48))) (let ((.def_52 (+ t@1 10.0))) (let ((.def_53 (= t@1 .def_52))) (let ((.def_54 (and act_make_treatment@1 true .def_53 .def_21 .def_34))) (let ((.def_55 (= fluent_ready_i1_t2@0 fluent_ready_i1_t2@1))) (let ((.def_56 (not .def_55))) (let ((.def_57 (=> .def_56 .def_54))) (let ((.def_58 (and act_make_treatment@1 true .def_53 .def_32 .def_34))) (let ((.def_59 (= fluent_ready_i0_t2@0 fluent_ready_i0_t2@1))) (let ((.def_60 (not .def_59))) (let ((.def_61 (=> .def_60 .def_58))) (let ((.def_62 (and act_make_treatment@1 true .def_53 .def_21 .def_35))) (let ((.def_63 (= fluent_ready_i1_t1@0 fluent_ready_i1_t1@1))) (let ((.def_64 (not .def_63))) (let ((.def_65 (=> .def_64 .def_62))) (let ((.def_66 (and act_make_treatment@1 true .def_53 .def_32 .def_35))) (let ((.def_67 (= fluent_ready_i0_t1@0 fluent_ready_i0_t1@1))) (let ((.def_68 (not .def_67))) (let ((.def_69 (=> .def_68 .def_66))) (let ((.def_70 (and act_make_treatment@1 true .def_53 .def_21 .def_36))) (let ((.def_71 (= fluent_ready_i1_t0@0 fluent_ready_i1_t0@1))) (let ((.def_72 (not .def_71))) (let ((.def_73 (=> .def_72 .def_70))) (let ((.def_74 (and act_make_treatment@1 true .def_53 .def_32 .def_36))) (let ((.def_75 (= fluent_ready_i0_t0@0 fluent_ready_i0_t0@1))) (let ((.def_76 (not .def_75))) (let ((.def_77 (=> .def_76 .def_74))) (let ((.def_78 (and act_make_treatment@1 true .def_21 .def_1))) (let ((.def_79 (= fluent_started_i1_t2@0 fluent_started_i1_t2@1))) (let ((.def_80 (not .def_79))) (let ((.def_81 (=> .def_80 .def_78))) (let ((.def_82 (and act_make_treatment@1 true .def_32 .def_1))) (let ((.def_83 (= fluent_started_i0_t2@0 fluent_started_i0_t2@1))) (let ((.def_84 (not .def_83))) (let ((.def_85 (=> .def_84 .def_82))) (let ((.def_86 (and act_make_treatment@1 true .def_21 .def_7))) (let ((.def_87 (= fluent_started_i1_t1@0 fluent_started_i1_t1@1))) (let ((.def_88 (not .def_87))) (let ((.def_89 (=> .def_88 .def_86))) (let ((.def_90 (and act_make_treatment@1 true .def_32 .def_7))) (let ((.def_91 (= fluent_started_i0_t1@0 fluent_started_i0_t1@1))) (let ((.def_92 (not .def_91))) (let ((.def_93 (=> .def_92 .def_90))) (let ((.def_94 (and act_make_treatment@1 true .def_21 .def_38))) (let ((.def_95 (= fluent_started_i1_t0@0 fluent_started_i1_t0@1))) (let ((.def_96 (not .def_95))) (let ((.def_97 (=> .def_96 .def_94))) (let ((.def_98 (and act_make_treatment@1 true .def_32 .def_38))) (let ((.def_99 (= fluent_started_i0_t0@0 fluent_started_i0_t0@1))) (let ((.def_100 (not .def_99))) (let ((.def_101 (=> .def_100 .def_98))) (let ((.def_102 (+ t@1 4.0))) (let ((.def_103 (= t@1 .def_102))) (let ((.def_104 (and act_make_treatment@1 true .def_103 .def_21 .def_1))) (let ((.def_105 (= fluent_treated_i1_t2@0 fluent_treated_i1_t2@1))) (let ((.def_106 (not .def_105))) (let ((.def_107 (=> .def_106 .def_104))) (let ((.def_108 (and act_make_treatment@1 true .def_103 .def_32 .def_1))) (let ((.def_109 (= fluent_treated_i0_t2@0 fluent_treated_i0_t2@1))) (let ((.def_110 (not .def_109))) (let ((.def_111 (=> .def_110 .def_108))) (let ((.def_112 (and act_make_treatment@1 true .def_103 .def_21 .def_7))) (let ((.def_113 (= fluent_treated_i1_t1@0 fluent_treated_i1_t1@1))) (let ((.def_114 (not .def_113))) (let ((.def_115 (=> .def_114 .def_112))) (let ((.def_116 (and act_make_treatment@1 true .def_103 .def_32 .def_7))) (let ((.def_117 (= fluent_treated_i0_t1@0 fluent_treated_i0_t1@1))) (let ((.def_118 (not .def_117))) (let ((.def_119 (=> .def_118 .def_116))) (let ((.def_120 (and act_make_treatment@1 true .def_103 .def_21 .def_38))) (let ((.def_121 (= fluent_treated_i1_t0@0 fluent_treated_i1_t0@1))) (let ((.def_122 (not .def_121))) (let ((.def_123 (=> .def_122 .def_120))) (let ((.def_124 (and act_make_treatment@1 true .def_103 .def_32 .def_38))) (let ((.def_125 (= fluent_treated_i0_t0@0 fluent_treated_i0_t0@1))) (let ((.def_126 (not .def_125))) (let ((.def_127 (=> .def_126 .def_124))) (let ((.def_128 (and act_make_treatment@1 true .def_103))) (let ((.def_129 (and act_make_treatment@1 true))) (let ((.def_130 (and .def_129 .def_128))) (let ((.def_131 (not .def_130))) (let ((.def_132 (or .def_129 .def_128))) (let ((.def_133 (= fluent_busy_@0 fluent_busy_@1))) (let ((.def_134 (not .def_133))) (let ((.def_135 (=> .def_134 .def_132))) (let ((.def_136 (<= 0.0 t@1))) (let ((.def_137 (and .def_21 .def_36))) (let ((.def_138 (or .def_137 fluent_ready_i0_t0@1))) (let ((.def_139 (not .def_137))) (let ((.def_140 (or .def_139 fluent_ready_i1_t0@1))) (let ((.def_141 (and .def_140 .def_138))) (let ((.def_142 (and .def_32 .def_35))) (let ((.def_143 (or .def_142 .def_141))) (let ((.def_144 (not .def_142))) (let ((.def_145 (or .def_144 fluent_ready_i0_t1@1))) (let ((.def_146 (and .def_145 .def_143))) (let ((.def_147 (and .def_21 .def_35))) (let ((.def_148 (or .def_147 .def_146))) (let ((.def_149 (not .def_147))) (let ((.def_150 (or .def_149 fluent_ready_i1_t1@1))) (let ((.def_151 (and .def_150 .def_148))) (let ((.def_152 (and .def_32 .def_34))) (let ((.def_153 (or .def_152 .def_151))) (let ((.def_154 (not .def_152))) (let ((.def_155 (or .def_154 fluent_ready_i0_t2@1))) (let ((.def_156 (and .def_155 .def_153))) (let ((.def_157 (and .def_21 .def_34))) (let ((.def_158 (or .def_157 .def_156))) (let ((.def_159 (not .def_157))) (let ((.def_160 (or .def_159 fluent_ready_i1_t2@1))) (let ((.def_161 (and .def_160 .def_158))) (let ((.def_162 (= .def_161 true))) (let ((.def_163 (=> true .def_162))) (let ((.def_164 (and .def_53 .def_163))) (let ((.def_165 (= fluent_busy_@1 false))) (let ((.def_166 (=> true .def_165))) (let ((.def_167 (and .def_21 .def_38))) (let ((.def_168 (or .def_167 fluent_treated_i0_t0@1))) (let ((.def_169 (not .def_167))) (let ((.def_170 (or .def_169 fluent_treated_i1_t0@1))) (let ((.def_171 (and .def_170 .def_168))) (let ((.def_172 (and .def_32 .def_7))) (let ((.def_173 (or .def_172 .def_171))) (let ((.def_174 (not .def_172))) (let ((.def_175 (or .def_174 fluent_treated_i0_t1@1))) (let ((.def_176 (and .def_175 .def_173))) (let ((.def_177 (and .def_21 .def_7))) (let ((.def_178 (or .def_177 .def_176))) (let ((.def_179 (not .def_177))) (let ((.def_180 (or .def_179 fluent_treated_i1_t1@1))) (let ((.def_181 (and .def_180 .def_178))) (let ((.def_182 (and .def_32 .def_1))) (let ((.def_183 (or .def_182 .def_181))) (let ((.def_184 (not .def_182))) (let ((.def_185 (or .def_184 fluent_treated_i0_t2@1))) (let ((.def_186 (and .def_185 .def_183))) (let ((.def_187 (and .def_21 .def_1))) (let ((.def_188 (or .def_187 .def_186))) (let ((.def_189 (not .def_187))) (let ((.def_190 (or .def_189 fluent_treated_i1_t2@1))) (let ((.def_191 (and .def_190 .def_188))) (let ((.def_192 (= .def_191 true))) (let ((.def_193 (=> true .def_192))) (let ((.def_194 (and .def_103 .def_193 .def_166))) (let ((.def_195 (or .def_167 fluent_started_i0_t0@1))) (let ((.def_196 (or .def_169 fluent_started_i1_t0@1))) (let ((.def_197 (and .def_196 .def_195))) (let ((.def_198 (or .def_172 .def_197))) (let ((.def_199 (or .def_174 fluent_started_i0_t1@1))) (let ((.def_200 (and .def_199 .def_198))) (let ((.def_201 (or .def_177 .def_200))) (let ((.def_202 (or .def_179 fluent_started_i1_t1@1))) (let ((.def_203 (and .def_202 .def_201))) (let ((.def_204 (or .def_182 .def_203))) (let ((.def_205 (or .def_184 fluent_started_i0_t2@1))) (let ((.def_206 (and .def_205 .def_204))) (let ((.def_207 (or .def_187 .def_206))) (let ((.def_208 (or .def_189 fluent_started_i1_t2@1))) (let ((.def_209 (and .def_208 .def_207))) (let ((.def_210 (= .def_209 true))) (let ((.def_211 (=> true .def_210))) (let ((.def_212 (= fluent_busy_@1 true))) (let ((.def_213 (=> true .def_212))) (let ((.def_214 (+ __z3_0 1.0))) (let ((.def_215 (= __z3_1 .def_214))) (let ((.def_216 (=> true .def_215))) (let ((.def_217 (= t@1 t@1))) (let ((.def_218 (and .def_217 .def_216 .def_213 .def_211))) (let ((.def_219 (or .def_137 fluent_started_i0_t0@0))) (let ((.def_220 (or .def_139 fluent_started_i1_t0@0))) (let ((.def_221 (and .def_220 .def_219))) (let ((.def_222 (or .def_142 .def_221))) (let ((.def_223 (or .def_144 fluent_started_i0_t1@0))) (let ((.def_224 (and .def_223 .def_222))) (let ((.def_225 (or .def_147 .def_224))) (let ((.def_226 (or .def_149 fluent_started_i1_t1@0))) (let ((.def_227 (and .def_226 .def_225))) (let ((.def_228 (or .def_152 .def_227))) (let ((.def_229 (or .def_154 fluent_started_i0_t2@0))) (let ((.def_230 (and .def_229 .def_228))) (let ((.def_231 (or .def_157 .def_230))) (let ((.def_232 (or .def_159 fluent_started_i1_t2@0))) (let ((.def_233 (and .def_232 .def_231))) (let ((.def_234 (+ t@1 dur_make_treatment@1))) (let ((.def_235 (<= .def_234 t@1))) (let ((.def_236 (< (- 1.0) .def_234))) (let ((.def_237 (and .def_236 .def_235))) (let ((.def_238 (=> .def_237 .def_233))) (let ((.def_239 (or .def_167 fluent_ready_i0_t0@0))) (let ((.def_240 (or .def_169 fluent_ready_i1_t0@0))) (let ((.def_241 (and .def_240 .def_239))) (let ((.def_242 (or .def_172 .def_241))) (let ((.def_243 (or .def_174 fluent_ready_i0_t1@0))) (let ((.def_244 (and .def_243 .def_242))) (let ((.def_245 (or .def_177 .def_244))) (let ((.def_246 (or .def_179 fluent_ready_i1_t1@0))) (let ((.def_247 (and .def_246 .def_245))) (let ((.def_248 (or .def_182 .def_247))) (let ((.def_249 (or .def_184 fluent_ready_i0_t2@0))) (let ((.def_250 (and .def_249 .def_248))) (let ((.def_251 (or .def_187 .def_250))) (let ((.def_252 (or .def_189 fluent_ready_i1_t2@0))) (let ((.def_253 (and .def_252 .def_251))) (let ((.def_254 (or .def_167 fluent_started_i0_t0@0))) (let ((.def_255 (or .def_169 fluent_started_i1_t0@0))) (let ((.def_256 (and .def_255 .def_254))) (let ((.def_257 (or .def_172 .def_256))) (let ((.def_258 (or .def_174 fluent_started_i0_t1@0))) (let ((.def_259 (and .def_258 .def_257))) (let ((.def_260 (or .def_177 .def_259))) (let ((.def_261 (or .def_179 fluent_started_i1_t1@0))) (let ((.def_262 (and .def_261 .def_260))) (let ((.def_263 (or .def_182 .def_262))) (let ((.def_264 (or .def_184 fluent_started_i0_t2@0))) (let ((.def_265 (and .def_264 .def_263))) (let ((.def_266 (or .def_187 .def_265))) (let ((.def_267 (or .def_189 fluent_started_i1_t2@0))) (let ((.def_268 (and .def_267 .def_266))) (let ((.def_269 (not .def_268))) (let ((.def_270 (or .def_167 fluent_treated_i0_t0@0))) (let ((.def_271 (or .def_169 fluent_treated_i1_t0@0))) (let ((.def_272 (and .def_271 .def_270))) (let ((.def_273 (or .def_172 .def_272))) (let ((.def_274 (or .def_174 fluent_treated_i0_t1@0))) (let ((.def_275 (and .def_274 .def_273))) (let ((.def_276 (or .def_177 .def_275))) (let ((.def_277 (or .def_179 fluent_treated_i1_t1@0))) (let ((.def_278 (and .def_277 .def_276))) (let ((.def_279 (or .def_182 .def_278))) (let ((.def_280 (or .def_184 fluent_treated_i0_t2@0))) (let ((.def_281 (and .def_280 .def_279))) (let ((.def_282 (or .def_187 .def_281))) (let ((.def_283 (or .def_189 fluent_treated_i1_t2@0))) (let ((.def_284 (and .def_283 .def_282))) (let ((.def_285 (not .def_284))) (let ((.def_286 (not fluent_busy_@0))) (let ((.def_287 (and .def_7 .def_36))) (let ((.def_288 (or .def_287 false))) (let ((.def_289 (not .def_287))) (let ((.def_290 (or .def_289 false))) (let ((.def_291 (and .def_290 .def_288))) (let ((.def_292 (and .def_1 .def_36))) (let ((.def_293 (or .def_292 .def_291))) (let ((.def_294 (not .def_292))) (let ((.def_295 (or .def_294 false))) (let ((.def_296 (and .def_295 .def_293))) (let ((.def_297 (and .def_38 .def_35))) (let ((.def_298 (or .def_297 .def_296))) (let ((.def_299 (not .def_297))) (let ((.def_300 (or .def_299 true))) (let ((.def_301 (and .def_300 .def_298))) (let ((.def_302 (and .def_7 .def_35))) (let ((.def_303 (or .def_302 .def_301))) (let ((.def_304 (not .def_302))) (let ((.def_305 (or .def_304 false))) (let ((.def_306 (and .def_305 .def_303))) (let ((.def_307 (and .def_1 .def_35))) (let ((.def_308 (or .def_307 .def_306))) (let ((.def_309 (not .def_307))) (let ((.def_310 (or .def_309 false))) (let ((.def_311 (and .def_310 .def_308))) (let ((.def_312 (and .def_38 .def_34))) (let ((.def_313 (or .def_312 .def_311))) (let ((.def_314 (not .def_312))) (let ((.def_315 (or .def_314 false))) (let ((.def_316 (and .def_315 .def_313))) (let ((.def_317 (and .def_7 .def_34))) (let ((.def_318 (or .def_317 .def_316))) (let ((.def_319 (not .def_317))) (let ((.def_320 (or .def_319 true))) (let ((.def_321 (and .def_320 .def_318))) (let ((.def_322 (and .def_1 .def_34))) (let ((.def_323 (or .def_322 .def_321))) (let ((.def_324 (not .def_322))) (let ((.def_325 (or .def_324 false))) (let ((.def_326 (and .def_325 .def_323))) (let ((.def_327 (= __z3_2 __z3_0))) (let ((.def_328 (and .def_327 .def_326 .def_286 .def_285 .def_269 .def_253))) (let ((.def_329 (<= t@1 t@1))) (let ((.def_330 (< (- 1.0) t@1))) (let ((.def_331 (and .def_330 .def_329))) (let ((.def_332 (=> .def_331 .def_328))) (let ((.def_333 (<= dur_make_treatment@1 15.0))) (let ((.def_334 (<= 15.0 dur_make_treatment@1))) (let ((.def_335 (and .def_334 .def_333))) (let ((.def_336 (and .def_335 .def_235 .def_332 .def_238 .def_218 .def_194 .def_164))) (let ((.def_337 (=> act_make_treatment@1 .def_336))) (let ((.def_338 (<= fluent_counter_t2@0 31.0))) (let ((.def_339 (<= 0.0 fluent_counter_t2@0))) (let ((.def_340 (<= fluent_counter_t1@0 31.0))) (let ((.def_341 (<= 0.0 fluent_counter_t1@0))) (let ((.def_342 (<= fluent_counter_t0@0 31.0))) (let ((.def_343 (<= 0.0 fluent_counter_t0@0))) (let ((.def_344 (= fluent_counter_t2@0 0.0))) (let ((.def_345 (= fluent_counter_t1@0 0.0))) (let ((.def_346 (= fluent_counter_t0@0 0.0))) (let ((.def_347 (= false false))) (let ((.def_348 (= fluent_ready_i1_t2@0 false))) (let ((.def_349 (= fluent_ready_i0_t2@0 false))) (let ((.def_350 (= fluent_ready_i1_t1@0 false))) (let ((.def_351 (= fluent_ready_i0_t1@0 false))) (let ((.def_352 (= fluent_started_i1_t1@0 false))) (let ((.def_353 (= fluent_started_i0_t1@0 false))) (let ((.def_354 (= fluent_started_i1_t0@0 false))) (let ((.def_355 (= fluent_started_i0_t0@0 false))) (let ((.def_356 (= fluent_treated_i1_t2@0 false))) (let ((.def_357 (= fluent_treated_i0_t2@0 false))) (let ((.def_358 (= fluent_treated_i1_t1@0 false))) (let ((.def_359 (= fluent_treated_i0_t1@0 false))) (let ((.def_360 (= fluent_treated_i1_t0@0 false))) (let ((.def_361 (= fluent_treated_i0_t0@0 false))) (let ((.def_362 (= fluent_busy_@0 false))) (let ((.def_363 (= fluent_ready_i1_t0@0 true))) (let ((.def_364 (= fluent_started_i1_t2@0 true))) (let ((.def_365 (= fluent_ready_i0_t0@0 true))) (let ((.def_366 (= fluent_started_i0_t2@0 true))) (let ((.def_367 (= true true))) (let ((.def_368 (= 1.0 1.0))) (let ((.def_369 (= 0.0 0.0))) (let ((.def_370 (and .def_369 .def_368 .def_367 .def_367 .def_366 .def_365 .def_364 .def_363 .def_362 .def_361 .def_360 .def_359 .def_358 .def_357 .def_356 .def_355 .def_354 .def_353 .def_352 .def_351 .def_350 .def_349 .def_348 .def_347 .def_347 .def_347 .def_347 .def_347 .def_347 .def_347 .def_346 .def_345 .def_344 .def_343 .def_342 .def_341 .def_340 .def_339 .def_338 .def_337 .def_136 .def_135 .def_131 .def_127 .def_123 .def_119 .def_115 .def_111 .def_107 .def_101 .def_97 .def_93 .def_89 .def_85 .def_81 .def_77 .def_73 .def_69 .def_65 .def_61 .def_57 .def_51 .def_47 .def_43 .def_39 .def_37 .def_33 .def_31 .def_30 .def_29 .def_28 .def_27 .def_26 .def_25 .def_22 .def_19 .def_17 .def_15 .def_13 .def_11 .def_8 .def_5 .def_2))) .def_370))))))))))))))))))))))))))))))))))))))))))))))))))))))))))))))))))))))))))))))))))))))))))))))))))))))))))))))))))))))))))))))))))))))))))))))))))))))))))))))))))))))))))))))))))))))))))))))))))))))))))))))))))))))))))))))))))))))))))))))))))))))))))))))))))))))))))))))))))))))))))))))))))))))))))))))))))))))))))))))))))))))))))))))))))))))))))))))))))))))))))))))))))))
(check-sat)
